(set-info :smt-lib-version 2.6)
(set-logic QF_BV)
(set-info :source |
Benchmarks generated by the Calysto static checker.  Provided by Domagoj
Babic.  See http://www.cs.ubc.ca/~babic/index_benchmarks.htm.  Translated using
Spear Sf2Smt translator.

|)
(set-info :category "industrial")
(set-info :status sat)
(declare-fun v56805236 () (_ BitVec 64))
(declare-fun o82546408 () (_ BitVec 1))
(declare-fun v53056900 () (_ BitVec 64))
(declare-fun o44313700 () (_ BitVec 1))
(declare-fun v38515116 () (_ BitVec 32))
(declare-fun o38579752 () (_ BitVec 64))
(declare-fun v51842868 () (_ BitVec 64))
(declare-fun o95743484 () (_ BitVec 1))
(declare-fun o58076632 () (_ BitVec 64))
(declare-fun o88117264 () (_ BitVec 64))
(declare-fun o100391756 () (_ BitVec 64))
(declare-fun o112721776 () (_ BitVec 32))
(declare-fun o77216164 () (_ BitVec 32))
(declare-fun o73278924 () (_ BitVec 1))
(declare-fun o68965280 () (_ BitVec 64))
(declare-fun v38022068 () (_ BitVec 64))
(declare-fun o38811192 () (_ BitVec 64))
(declare-fun o38467972 () (_ BitVec 64))
(declare-fun o95769188 () (_ BitVec 1))
(declare-fun v42981520 () (_ BitVec 64))
(declare-fun o25103988 () (_ BitVec 64))
(declare-fun o68084472 () (_ BitVec 64))
(declare-fun o33978812 () (_ BitVec 64))
(declare-fun o28850412 () (_ BitVec 1))
(declare-fun v53193300 () (_ BitVec 1))
(declare-fun v84010868 () (_ BitVec 32))
(declare-fun o42698744 () (_ BitVec 32))
(declare-fun v63804416 () (_ BitVec 32))
(declare-fun o57981764 () (_ BitVec 1))
(declare-fun vf42478508 () (_ BitVec 1))
(declare-fun o178037896 () (_ BitVec 1))
(declare-fun o77724024 () (_ BitVec 1))
(declare-fun o33428596 () (_ BitVec 1))
(declare-fun o113284164 () (_ BitVec 1))
(declare-fun o25721408 () (_ BitVec 1))
(declare-fun o59205740 () (_ BitVec 1))
(declare-fun o45193216 () (_ BitVec 1))
(declare-fun o24956916 () (_ BitVec 1))
(declare-fun o36573724 () (_ BitVec 1))
(declare-fun o53101436 () (_ BitVec 1))
(declare-fun o40811880 () (_ BitVec 1))
(declare-fun o46192672 () (_ BitVec 1))
(declare-fun o31530240 () (_ BitVec 1))
(declare-fun o37904748 () (_ BitVec 1))
(declare-fun o45605144 () (_ BitVec 64))
(declare-fun o43479136 () (_ BitVec 64))
(declare-fun o97687452 () (_ BitVec 1))
(declare-fun o46185308 () (_ BitVec 1))
(declare-fun o123696072 () (_ BitVec 1))
(declare-fun o79320656 () (_ BitVec 1))
(declare-fun o53427624 () (_ BitVec 1))
(declare-fun o53471796 () (_ BitVec 1))
(declare-fun v51786132 () (_ BitVec 64))
(declare-fun o101002424 () (_ BitVec 1))
(declare-fun o46513756 () (_ BitVec 1))
(declare-fun o46841948 () (_ BitVec 1))
(declare-fun o82677192 () (_ BitVec 1))
(declare-fun o93099800 () (_ BitVec 1))
(declare-fun v89310872 () (_ BitVec 1))
(declare-fun v68681028 () (_ BitVec 64))
(declare-fun o16477240 () (_ BitVec 64))
(declare-fun o28079756 () (_ BitVec 64))
(declare-fun v56801200 () (_ BitVec 64))
(declare-fun v40884512 () (_ BitVec 64))
(declare-fun o48161040 () (_ BitVec 64))
(declare-fun o36562080 () (_ BitVec 64))
(declare-fun o90761188 () (_ BitVec 64))
(declare-fun o40361020 () (_ BitVec 1))
(declare-fun o39535336 () (_ BitVec 1))
(declare-fun o67498016 () (_ BitVec 1))
(declare-fun o50686868 () (_ BitVec 1))
(declare-fun o97688208 () (_ BitVec 1))
(declare-fun o46191832 () (_ BitVec 1))
(declare-fun o101674972 () (_ BitVec 1))
(declare-fun o82938904 () (_ BitVec 1))
(declare-fun o21637916 () (_ BitVec 1))
(declare-fun o57447696 () (_ BitVec 1))
(declare-fun o70436820 () (_ BitVec 1))
(declare-fun o90975440 () (_ BitVec 1))
(declare-fun o149846268 () (_ BitVec 1))
(declare-fun o40269804 () (_ BitVec 1))
(declare-fun o82746888 () (_ BitVec 1))
(declare-fun o56041144 () (_ BitVec 1))
(declare-fun o79295916 () (_ BitVec 1))
(declare-fun o64882704 () (_ BitVec 1))
(declare-fun o98445396 () (_ BitVec 1))
(declare-fun o33221996 () (_ BitVec 1))
(declare-fun o91754188 () (_ BitVec 1))
(declare-fun o81359012 () (_ BitVec 1))
(declare-fun o73124492 () (_ BitVec 1))
(declare-fun o74294896 () (_ BitVec 1))
(declare-fun o48248892 () (_ BitVec 1))
(declare-fun o69421952 () (_ BitVec 1))
(declare-fun o100030076 () (_ BitVec 1))
(declare-fun o16618068 () (_ BitVec 1))
(declare-fun o20243996 () (_ BitVec 1))
(declare-fun v97701568 () (_ BitVec 64))
(declare-fun o95731616 () (_ BitVec 1))
(declare-fun v59330912 () (_ BitVec 64))
(declare-fun o50949580 () (_ BitVec 64))
(declare-fun o42547476 () (_ BitVec 1))
(declare-fun o38340548 () (_ BitVec 1))
(declare-fun o19614448 () (_ BitVec 1))
(declare-fun o79281036 () (_ BitVec 1))
(declare-fun o28343112 () (_ BitVec 1))
(declare-fun o40529164 () (_ BitVec 1))
(declare-fun o41488752 () (_ BitVec 1))
(declare-fun o160533104 () (_ BitVec 1))
(declare-fun o57021316 () (_ BitVec 1))
(declare-fun o99988368 () (_ BitVec 1))
(declare-fun o128526768 () (_ BitVec 64))
(declare-fun o111946624 () (_ BitVec 64))
(declare-fun o26407804 () (_ BitVec 64))
(declare-fun o23829120 () (_ BitVec 64))
(declare-fun o88519200 () (_ BitVec 64))
(declare-fun o26080332 () (_ BitVec 64))
(declare-fun o32790796 () (_ BitVec 64))
(declare-fun o57475684 () (_ BitVec 64))
(declare-fun o97003992 () (_ BitVec 1))
(declare-fun o81359032 () (_ BitVec 1))
(declare-fun o41478272 () (_ BitVec 1))
(declare-fun o34069988 () (_ BitVec 1))
(declare-fun o31040844 () (_ BitVec 1))
(declare-fun o58384428 () (_ BitVec 1))
(declare-fun o35784968 () (_ BitVec 1))
(declare-fun o50110076 () (_ BitVec 1))
(declare-fun o55389172 () (_ BitVec 1))
(declare-fun o41464948 () (_ BitVec 1))
(declare-fun o52912688 () (_ BitVec 1))
(declare-fun o69414912 () (_ BitVec 1))
(declare-fun o68371112 () (_ BitVec 1))
(declare-fun o170929324 () (_ BitVec 1))
(declare-fun v39510376 () (_ BitVec 32))
(declare-fun v125701316 () (_ BitVec 32))
(declare-fun o45952248 () (_ BitVec 32))
(declare-fun o31887212 () (_ BitVec 32))
(declare-fun v28664544 () (_ BitVec 32))
(declare-fun v161377576 () (_ BitVec 32))
(declare-fun o46484048 () (_ BitVec 32))
(declare-fun o80862252 () (_ BitVec 32))
(declare-fun o39775488 () (_ BitVec 32))
(declare-fun o33574136 () (_ BitVec 32))
(declare-fun o23082980 () (_ BitVec 32))
(declare-fun o50749692 () (_ BitVec 1))
(declare-fun v99513728 () (_ BitVec 32))
(declare-fun v47941792 () (_ BitVec 32))
(declare-fun o20320960 () (_ BitVec 32))
(declare-fun o123404228 () (_ BitVec 32))
(declare-fun o90978716 () (_ BitVec 32))
(declare-fun o126164644 () (_ BitVec 32))
(declare-fun o46465948 () (_ BitVec 32))
(declare-fun o48154204 () (_ BitVec 32))
(declare-fun o23288548 () (_ BitVec 32))
(declare-fun o48126920 () (_ BitVec 1))
(declare-fun o36607772 () (_ BitVec 1))
(declare-fun v41175448 () (_ BitVec 32))
(declare-fun o37463360 () (_ BitVec 1))
(declare-fun o54162716 () (_ BitVec 1))
(declare-fun Fresh__0 () (_ BitVec 1))
(declare-fun Fresh__1 () (_ BitVec 1))
(declare-fun Fresh__2 () (_ BitVec 1))
(declare-fun Fresh__3 () (_ BitVec 1))
(declare-fun Fresh__4 () (_ BitVec 1))
(declare-fun Fresh__5 () (_ BitVec 1))
(declare-fun Fresh__6 () (_ BitVec 1))
(declare-fun Fresh__7 () (_ BitVec 1))
(declare-fun Fresh__8 () (_ BitVec 1))
(declare-fun Fresh__9 () (_ BitVec 1))
(declare-fun Fresh__10 () (_ BitVec 1))
(declare-fun Fresh__11 () (_ BitVec 1))
(declare-fun Fresh__12 () (_ BitVec 1))
(declare-fun Fresh__13 () (_ BitVec 1))
(declare-fun Fresh__14 () (_ BitVec 1))
(declare-fun Fresh__15 () (_ BitVec 1))
(declare-fun Fresh__16 () (_ BitVec 1))
(declare-fun Fresh__17 () (_ BitVec 1))
(declare-fun Fresh__18 () (_ BitVec 1))
(declare-fun Fresh__19 () (_ BitVec 1))
(declare-fun Fresh__20 () (_ BitVec 1))
(declare-fun Fresh__21 () (_ BitVec 1))
(declare-fun Fresh__22 () (_ BitVec 1))
(declare-fun Fresh__23 () (_ BitVec 1))
(declare-fun Fresh__24 () (_ BitVec 1))
(declare-fun Fresh__25 () (_ BitVec 1))
(declare-fun Fresh__26 () (_ BitVec 1))
(declare-fun Fresh__27 () (_ BitVec 1))
(declare-fun Fresh__28 () (_ BitVec 1))
(declare-fun Fresh__29 () (_ BitVec 1))
(declare-fun Fresh__30 () (_ BitVec 1))
(declare-fun Fresh__31 () (_ BitVec 1))
(declare-fun Fresh__32 () (_ BitVec 1))
(declare-fun Fresh__33 () (_ BitVec 1))
(declare-fun Fresh__34 () (_ BitVec 1))
(declare-fun Fresh__35 () (_ BitVec 1))
(declare-fun Fresh__36 () (_ BitVec 1))
(declare-fun Fresh__37 () (_ BitVec 1))
(declare-fun Fresh__38 () (_ BitVec 1))
(declare-fun Fresh__39 () (_ BitVec 1))
(declare-fun Fresh__40 () (_ BitVec 1))
(declare-fun Fresh__41 () (_ BitVec 1))
(assert (= (= Fresh__0 (_ bv1 1)) (bvslt v56805236 ((_ extract 63 0) (_ bv1 64)))))
(assert (= o82546408 Fresh__0))
(assert (= (= Fresh__1 (_ bv1 1)) (= v53056900 ((_ extract 63 0) (_ bv0 64)))))
(assert (= o44313700 Fresh__1))
(assert (= o38579752 ((_ sign_extend 32) v38515116)))
(assert (= (= Fresh__2 (_ bv1 1)) (bvslt ((_ extract 63 0) (_ bv10 64)) v51842868)))
(assert (= o95743484 Fresh__2))
(assert (= o58076632 (bvadd v51842868 ((_ extract 63 0) (_ bv1 64)))))
(assert (= o88117264 (ite (= o95743484 (_ bv1 1)) o58076632 ((_ extract 63 0) (_ bv12 64)))))
(assert (= o100391756 (bvsub o38579752 o88117264)))
(assert (= o112721776 ((_ extract 31 0) o100391756)))
(assert (= o77216164 (bvadd ((_ extract 31 0) (_ bv18446744073709551586 64)) o112721776)))
(assert (= (= Fresh__3 (_ bv1 1)) (bvsle o77216164 ((_ extract 31 0) (_ bv0 64)))))
(assert (= o73278924 Fresh__3))
(assert (= o68965280 ((_ sign_extend 32) o77216164)))
(assert (= o38811192 (bvsdiv v38022068 v56805236)))
(assert (= o38467972 (bvmul o68965280 o38811192)))
(assert (= (= Fresh__4 (_ bv1 1)) (bvsle o38467972 ((_ extract 63 0) (_ bv0 64)))))
(assert (= o95769188 Fresh__4))
(assert (= o25103988 (bvadd v42981520 v38022068)))
(assert (= o68084472 (bvmul o25103988 ((_ extract 63 0) (_ bv100 64)))))
(assert (= o33978812 (bvsdiv o68084472 v56805236)))
(assert (= (= Fresh__5 (_ bv1 1)) (bvslt o33978812 ((_ extract 63 0) (_ bv100 64)))))
(assert (= o28850412 Fresh__5))
(assert (= o42698744 (ite (= v53193300 (_ bv1 1)) ((_ extract 31 0) (_ bv0 64)) v84010868)))
(assert (= (= Fresh__6 (_ bv1 1)) (= o42698744 v63804416)))
(assert (= o57981764 Fresh__6))
(assert (= o178037896 (bvand ((_ extract 0 0) (_ bv1 64)) vf42478508)))
(assert (= o77724024 (bvand o57981764 o178037896)))
(assert (= o33428596 (bvand ((_ extract 0 0) (_ bv1 64)) o77724024)))
(assert (= (= Fresh__7 (_ bv1 1)) (bvslt ((_ extract 63 0) (_ bv0 64)) v56805236)))
(assert (= o113284164 Fresh__7))
(assert (= o25721408 (bvand o33428596 o113284164)))
(assert (= (= Fresh__8 (_ bv1 1)) (bvsle o33978812 ((_ extract 63 0) (_ bv100 64)))))
(assert (= o59205740 Fresh__8))
(assert (= o45193216 (bvand o25721408 o59205740)))
(assert (= (= Fresh__9 (_ bv1 1)) (bvsle ((_ extract 63 0) (_ bv100 64)) o33978812)))
(assert (= o24956916 Fresh__9))
(assert (= o36573724 (bvand o24956916 o45193216)))
(assert (= o53101436 (ite (= o28850412 (_ bv1 1)) o45193216 o36573724)))
(assert (= (= Fresh__10 (_ bv1 1)) (distinct o77216164 ((_ extract 31 0) (_ bv0 64)))))
(assert (= o40811880 Fresh__10))
(assert (= o46192672 (bvand o53101436 o40811880)))
(assert (= (= Fresh__11 (_ bv1 1)) (bvsle ((_ extract 63 0) (_ bv1 64)) v56805236)))
(assert (= o31530240 Fresh__11))
(assert (= o37904748 (bvand o46192672 o31530240)))
(assert (= o45605144 (bvsdiv o25103988 v56805236)))
(assert (= o43479136 (bvmul o68965280 o45605144)))
(assert (= (= Fresh__12 (_ bv1 1)) (bvsle o43479136 o68965280)))
(assert (= o97687452 Fresh__12))
(assert (= o46185308 (bvand o37904748 o97687452)))
(assert (= (= Fresh__13 (_ bv1 1)) (bvsle o38467972 o43479136)))
(assert (= o123696072 Fresh__13))
(assert (= o79320656 (bvand o46185308 o123696072)))
(assert (= o53427624 (bvand o95769188 o79320656)))
(assert (= o53471796 (bvand o73278924 o53427624)))
(assert (= (= Fresh__14 (_ bv1 1)) (= v51786132 ((_ extract 63 0) (_ bv0 64)))))
(assert (= o101002424 Fresh__14))
(assert (= (= Fresh__15 (_ bv1 1)) (distinct v51786132 ((_ extract 63 0) (_ bv0 64)))))
(assert (= o46513756 Fresh__15))
(assert (= (= Fresh__16 (_ bv1 1)) (distinct v53056900 ((_ extract 63 0) (_ bv0 64)))))
(assert (= o46841948 Fresh__16))
(assert (= o82677192 (bvand o46841948 o53471796)))
(assert (= o93099800 (bvand o46513756 o82677192)))
(assert (= o16477240 (bvadd v68681028 v51786132)))
(assert (= o28079756 (bvmul ((_ extract 63 0) (_ bv1000 64)) o16477240)))
(assert (= o48161040 (bvsub v56801200 v40884512)))
(assert (= o36562080 (bvadd v53056900 o48161040)))
(assert (= o90761188 (bvsdiv o28079756 o36562080)))
(assert (= (= Fresh__17 (_ bv1 1)) (bvslt o90761188 ((_ extract 63 0) (_ bv1024 64)))))
(assert (= o40361020 Fresh__17))
(assert (= (= Fresh__18 (_ bv1 1)) (bvsle ((_ extract 63 0) (_ bv0 64)) o36562080)))
(assert (= o39535336 Fresh__18))
(assert (= o67498016 (bvand ((_ extract 0 0) (_ bv1 64)) o39535336)))
(assert (= (= Fresh__19 (_ bv1 1)) (bvsle ((_ extract 63 0) (_ bv0 64)) o16477240)))
(assert (= o50686868 Fresh__19))
(assert (= o97688208 (bvand o67498016 o50686868)))
(assert (= (= Fresh__20 (_ bv1 1)) (bvslt o90761188 ((_ extract 63 0) (_ bv1048576 64)))))
(assert (= o46191832 Fresh__20))
(assert (= (= Fresh__21 (_ bv1 1)) (bvsle ((_ extract 63 0) (_ bv1024 64)) o90761188)))
(assert (= o101674972 Fresh__21))
(assert (= o82938904 (bvand o97688208 o101674972)))
(assert (= (= Fresh__22 (_ bv1 1)) (bvslt o90761188 ((_ extract 63 0) (_ bv1073741824 64)))))
(assert (= o21637916 Fresh__22))
(assert (= (= Fresh__23 (_ bv1 1)) (bvsle ((_ extract 63 0) (_ bv1048576 64)) o90761188)))
(assert (= o57447696 Fresh__23))
(assert (= o70436820 (bvand o57447696 o82938904)))
(assert (= (= Fresh__24 (_ bv1 1)) (bvsle ((_ extract 63 0) (_ bv1073741824 64)) o90761188)))
(assert (= o90975440 Fresh__24))
(assert (= o149846268 (bvand o90975440 o70436820)))
(assert (= o40269804 (ite (= o21637916 (_ bv1 1)) o70436820 o149846268)))
(assert (= o82746888 (ite (= o46191832 (_ bv1 1)) o82938904 o40269804)))
(assert (= o56041144 (ite (= o40361020 (_ bv1 1)) o97688208 o82746888)))
(assert (= o79295916 (ite (= v89310872 (_ bv1 1)) o56041144 ((_ extract 0 0) (_ bv0 64)))))
(assert (= o64882704 (bvand o93099800 o79295916)))
(assert (= o98445396 (ite (= o101002424 (_ bv1 1)) o53471796 o64882704)))
(assert (= o33221996 (ite (= o44313700 (_ bv1 1)) o53471796 o98445396)))
(assert (= (= Fresh__25 (_ bv1 1)) (bvslt v42981520 ((_ extract 63 0) (_ bv1 64)))))
(assert (= o91754188 Fresh__25))
(assert (= (= Fresh__26 (_ bv1 1)) (bvsle v56801200 ((_ extract 63 0) (_ bv3000 64)))))
(assert (= o81359012 Fresh__26))
(assert (= o73124492 (bvand o33221996 o113284164)))
(assert (= (= Fresh__27 (_ bv1 1)) (= o25103988 v56805236)))
(assert (= o74294896 Fresh__27))
(assert (= (= Fresh__28 (_ bv1 1)) (bvsle ((_ extract 63 0) (_ bv1 64)) v42981520)))
(assert (= o48248892 Fresh__28))
(assert (= o69421952 (bvand o33221996 o31530240)))
(assert (= o100030076 (bvand o48248892 o69421952)))
(assert (= (= Fresh__29 (_ bv1 1)) (bvslt ((_ extract 63 0) (_ bv3000 64)) v56801200)))
(assert (= o16618068 Fresh__29))
(assert (= o20243996 (bvand o100030076 o16618068)))
(assert (= (= Fresh__30 (_ bv1 1)) (= ((_ extract 63 0) (_ bv0 64)) v97701568)))
(assert (= o95731616 Fresh__30))
(assert (= o50949580 (bvsub v56801200 v59330912)))
(assert (= (= Fresh__31 (_ bv1 1)) (bvsle ((_ extract 63 0) (_ bv900 64)) o50949580)))
(assert (= o42547476 Fresh__31))
(assert (= (= Fresh__32 (_ bv1 1)) (distinct o25103988 v56805236)))
(assert (= o38340548 Fresh__32))
(assert (= o19614448 (bvand o38340548 o20243996)))
(assert (= (= Fresh__33 (_ bv1 1)) (distinct ((_ extract 63 0) (_ bv0 64)) v97701568)))
(assert (= o79281036 Fresh__33))
(assert (= o28343112 (bvand o19614448 o79281036)))
(assert (= (= Fresh__34 (_ bv1 1)) (bvslt o50949580 ((_ extract 63 0) (_ bv900 64)))))
(assert (= o40529164 Fresh__34))
(assert (= o41488752 (bvand o28343112 o40529164)))
(assert (= o160533104 (ite (= o42547476 (_ bv1 1)) o20243996 o41488752)))
(assert (= o57021316 (ite (= o95731616 (_ bv1 1)) o20243996 o160533104)))
(assert (= o99988368 (ite (= o74294896 (_ bv1 1)) o20243996 o57021316)))
(assert (= o128526768 (bvsdiv v56801200 ((_ extract 63 0) (_ bv1000 64)))))
(assert (= o111946624 (bvsub v56805236 o25103988)))
(assert (= o26407804 (bvmul o128526768 o111946624)))
(assert (= o23829120 (bvsdiv o26407804 v42981520)))
(assert (= o88519200 (ite (= o42547476 (_ bv1 1)) o23829120 v97701568)))
(assert (= o26080332 (ite (= o95731616 (_ bv1 1)) o23829120 o88519200)))
(assert (= o32790796 (ite (= o74294896 (_ bv1 1)) o23829120 o26080332)))
(assert (= o57475684 (bvsdiv o32790796 ((_ extract 63 0) (_ bv3600 64)))))
(assert (= (= Fresh__35 (_ bv1 1)) (bvslt ((_ extract 63 0) (_ bv99 64)) o57475684)))
(assert (= o97003992 Fresh__35))
(assert (= o81359032 (bvand o99988368 o97003992)))
(assert (= o41478272 (ite (= o81359012 (_ bv1 1)) o73124492 o81359032)))
(assert (= o34069988 (ite (= o91754188 (_ bv1 1)) o73124492 o41478272)))
(assert (= o31040844 (ite (= o82546408 (_ bv1 1)) o73124492 o34069988)))
(assert (= o58384428 (ite (= o81359012 (_ bv1 1)) o33221996 o31040844)))
(assert (= o35784968 (ite (= o91754188 (_ bv1 1)) o33221996 o58384428)))
(assert (= o50110076 (ite (= o82546408 (_ bv1 1)) o33221996 o35784968)))
(assert (= (= Fresh__36 (_ bv1 1)) (bvsle o57475684 ((_ extract 63 0) (_ bv99 64)))))
(assert (= o55389172 Fresh__36))
(assert (= o41464948 (bvand o99988368 o55389172)))
(assert (= o52912688 (ite (= o97003992 (_ bv1 1)) o50110076 o41464948)))
(assert (= o69414912 (ite (= o81359012 (_ bv1 1)) o50110076 o52912688)))
(assert (= o68371112 (ite (= o91754188 (_ bv1 1)) o50110076 o69414912)))
(assert (= o170929324 (ite (= o82546408 (_ bv1 1)) o33221996 o68371112)))
(assert (= o45952248 (ite (= o101002424 (_ bv1 1)) v39510376 v125701316)))
(assert (= o31887212 (ite (= o44313700 (_ bv1 1)) v39510376 o45952248)))
(assert (= o46484048 (ite (= o101002424 (_ bv1 1)) v28664544 v161377576)))
(assert (= o80862252 (ite (= o44313700 (_ bv1 1)) v28664544 o46484048)))
(assert (= o39775488 (ite (= o81359012 (_ bv1 1)) o31887212 o80862252)))
(assert (= o33574136 (ite (= o91754188 (_ bv1 1)) o31887212 o39775488)))
(assert (= o23082980 (ite (= o82546408 (_ bv1 1)) o31887212 o33574136)))
(assert (= (= Fresh__37 (_ bv1 1)) (= o57475684 ((_ extract 63 0) (_ bv0 64)))))
(assert (= o50749692 Fresh__37))
(assert (= o20320960 (ite (= o101002424 (_ bv1 1)) v99513728 v47941792)))
(assert (= o123404228 (ite (= o44313700 (_ bv1 1)) v99513728 o20320960)))
(assert (= o90978716 (ite (= o50749692 (_ bv1 1)) o123404228 o31887212)))
(assert (= o126164644 (ite (= o97003992 (_ bv1 1)) o23082980 o90978716)))
(assert (= o46465948 (ite (= o81359012 (_ bv1 1)) o23082980 o126164644)))
(assert (= o48154204 (ite (= o91754188 (_ bv1 1)) o23082980 o46465948)))
(assert (= o23288548 (ite (= o82546408 (_ bv1 1)) o31887212 o48154204)))
(assert (= (= Fresh__38 (_ bv1 1)) (bvsle o23288548 v38515116)))
(assert (= o48126920 Fresh__38))
(assert (= o36607772 (bvand o170929324 o48126920)))
(assert (= (= Fresh__39 (_ bv1 1)) (distinct v41175448 ((_ extract 31 0) (_ bv0 64)))))
(assert (= o37463360 Fresh__39))
(assert (= (= Fresh__40 (_ bv1 1)) (=> (= o36607772 (_ bv1 1)) (= o37463360 (_ bv1 1)))))
(assert (= o54162716 Fresh__40))
(assert (= (= Fresh__41 (_ bv1 1)) (= ((_ extract 0 0) (_ bv0 64)) o54162716)))
(assert (= (_ bv1 1) Fresh__41))
(check-sat)
(exit)
